(set-logic HORN)
(set-info :source |
    Benchmark: C_VC
    Output by Princess (http://www.philipp.ruemmer.org/princess.shtml)
|)
(set-info :status sat)
(declare-heap Heap Addr HeapObject
 defObj
 ((HeapObject 0) (node 0)) (
  (
   (O_Int (getInt Int))
   (O_UInt (getUInt Int))
   (O_Addr (getAddr Addr))
   (O_AddrRange (getAddrRange AddrRange))
   (O_node (getnode node))
   (defObj)
  )
  (
   (node (|node::val| Int) (|node::next| Addr))
  )
))
(declare-fun inv_main573_5 (Heap) Bool)
(declare-fun inv_main587_14 (Heap Addr Addr Addr) Bool)
(declare-fun inv_main588_17 (Heap Addr Addr Addr) Bool)
(declare-fun inv_main_2 (Heap Addr Addr Addr) Bool)
(assert (forall ((var0 Heap)) (or (not (= var0 emptyHeap)) (inv_main573_5 var0))))
(assert (forall ((var0 Int) (var1 Int) (var2 Addr) (var3 Addr) (var4 Addr) (var5 Heap)) (or (not (and (inv_main_2 var5 var4 var3 var2) (and (or (<= 0 (+ (+ 10 (* (- 1) var1)) (- 1))) (<= 0 (+ (+ var1 (- 20)) (- 1)))) (not (= var0 0))))) (inv_main_2 var5 var4 var3 var2))))
(assert (forall ((var0 Int) (var1 Int) (var2 Addr) (var3 Addr) (var4 Addr) (var5 Heap) (var6 Int) (var7 Addr) (var8 Addr) (var9 Addr) (var10 Heap) (var11 Int) (var12 Addr) (var13 Addr) (var14 Addr) (var15 Heap) (var16 Addr) (var17 Int) (var18 Int) (var19 Addr) (var20 Addr) (var21 Addr) (var22 node) (var23 Heap) (var24 Addr) (var25 Addr) (var26 Addr) (var27 Heap)) (or (not (and (inv_main_2 var27 var26 var25 var24) (and (and (and (and (and (and (and (and (and (and (= var23 (newHeap (alloc var27 (O_node var22)))) (= var21 var26)) (= var20 var25)) (= var19 var24)) (= var18 var17)) (= var16 (newAddr (alloc var27 (O_node var22))))) (and (not (<= 0 (+ (+ 10 (* (- 1) var17)) (- 1)))) (not (<= 0 (+ (+ var17 (- 20)) (- 1)))))) (and (and (and (and (= var15 (write var23 var19 (O_node (node (|node::val| (getnode (read var23 var19))) var16)))) (= var14 var16)) (= var13 var20)) (= var12 var19)) (= var11 var18))) (and (and (and (and (= var10 (write var15 var14 (O_node (node (|node::val| (getnode (read var15 var14))) nullAddr)))) (= var9 var14)) (= var8 var13)) (= var7 var12)) (= var6 var11))) (and (and (and (and (= var5 (write var10 var9 (O_node (node var6 (|node::next| (getnode (read var10 var9))))))) (= var4 var9)) (= var3 var8)) (= var2 var7)) (= var1 var6))) (not (= var0 0))))) (inv_main_2 var5 var4 var3 var4))))
(assert (forall ((var0 Heap) (var1 Addr) (var2 node) (var3 Addr) (var4 Addr) (var5 Addr) (var6 Addr) (var7 Addr) (var8 Heap) (var9 Heap) (var10 Heap)) (or (not (and (inv_main573_5 var10) (and (and (and (and (and (= var9 (write var8 var7 (O_node (node (|node::val| (getnode (read var8 var7))) nullAddr)))) (= var6 var5)) (= var4 var7)) (= var3 var7)) (and (and (= var8 (newHeap (alloc var10 (O_node var2)))) (= var5 var1)) (= var7 (newAddr (alloc var10 (O_node var2)))))) (= var0 (write var9 var4 (O_node (node 10 (|node::next| (getnode (read var9 var4)))))))))) (inv_main_2 var0 var6 var4 var3))))
(assert (forall ((var0 Addr) (var1 Addr) (var2 Addr) (var3 Heap)) (or (not (and (inv_main587_14 var3 var2 var1 var0) (= var2 nullAddr))) (inv_main587_14 var3 var1 var1 var0))))
(assert (forall ((var0 Int) (var1 Addr) (var2 Addr) (var3 Addr) (var4 Heap)) (or (not (and (inv_main_2 var4 var3 var2 var1) (= var0 0))) (inv_main587_14 var4 var2 var2 var1))))
(assert (forall ((var0 Int) (var1 Int) (var2 Addr) (var3 Addr) (var4 Addr) (var5 Addr) (var6 Addr) (var7 Addr) (var8 Heap) (var9 Heap) (var10 Addr) (var11 Addr) (var12 Addr) (var13 Addr) (var14 Addr) (var15 Addr) (var16 Addr) (var17 Heap) (var18 Heap) (var19 Addr) (var20 Addr) (var21 Addr) (var22 Heap)) (or (not (and (inv_main588_17 var22 var21 var20 var19) (and (and (and (and (and (and (= var18 var17) (= var16 var15)) (= var14 var13)) (= var12 var11)) (= var10 (|node::next| (getnode (read var17 var15))))) (and (and (and (and (and (= var9 var8) (= var7 var6)) (= var5 var4)) (= var3 var2)) (= var1 (|node::val| (getnode (read var8 var6))))) (and (<= 0 (+ (+ 20 (* (- 1) var0)) (- 1))) (and (and (and (and (= var8 var22) (= var6 var21)) (= var4 var20)) (= var2 var19)) (= var0 (|node::val| (getnode (read var22 var21)))))))) (and (and (and (= var17 (write var9 var7 (O_node (node (+ var1 1) (|node::next| (getnode (read var9 var7))))))) (= var15 var7)) (= var13 var5)) (= var11 var3))))) (inv_main587_14 var18 var10 var14 var12))))
(assert (forall ((var0 Int) (var1 Int) (var2 Addr) (var3 Addr) (var4 Addr) (var5 Addr) (var6 Addr) (var7 Addr) (var8 Heap) (var9 Heap) (var10 Addr) (var11 Addr) (var12 Addr) (var13 Addr) (var14 Addr) (var15 Addr) (var16 Addr) (var17 Heap) (var18 Heap) (var19 Addr) (var20 Addr) (var21 Addr) (var22 Heap) (var23 Int)) (or (not (and (inv_main588_17 var22 var21 var20 var19) (and (and (and (and (and (and (= var18 var17) (= var16 var15)) (= var14 var13)) (= var12 var11)) (= var10 (|node::next| (getnode (read var17 var15))))) (and (and (and (and (and (= var9 var8) (= var7 var6)) (= var5 var4)) (= var3 var2)) (= var1 (|node::val| (getnode (read var8 var6))))) (and (not (<= 0 (+ (+ 20 (* (- 1) var0)) (- 1)))) (and (and (and (and (= var8 var22) (= var6 var21)) (= var4 var20)) (= var2 var19)) (= var0 (|node::val| (getnode (read var22 var21)))))))) (and (and (and (and (and (and (and (<= 0 (+ (+ 2 (* (- 1) (+ var1 (* (- 2) var23)))) (- 1))) (<= 0 (+ (+ 2 (* 1 (+ var1 (* (- 2) var23)))) (- 1)))) (or (not (<= 0 (+ (+ var1 (* (- 2) var23)) (- 1)))) (<= 0 (+ var1 (- 1))))) (or (not (<= 0 (+ (* (- 1) (+ var1 (* (- 2) var23))) (- 1)))) (<= 0 (+ (* (- 1) var1) (- 1))))) (= var17 (write var9 var7 (O_node (node var23 (|node::next| (getnode (read var9 var7)))))))) (= var15 var7)) (= var13 var5)) (= var11 var3))))) (inv_main587_14 var18 var10 var14 var12))))
(assert (forall ((var0 Int) (var1 Addr) (var2 Addr) (var3 Addr) (var4 Heap) (var5 Addr) (var6 Addr) (var7 Addr) (var8 Heap) (var9 Int) (var10 Int) (var11 Addr) (var12 Addr) (var13 Addr) (var14 Heap) (var15 Int) (var16 Int) (var17 Addr) (var18 Addr) (var19 Addr) (var20 Addr) (var21 Addr) (var22 Addr) (var23 Heap) (var24 Heap) (var25 Addr) (var26 Addr) (var27 Addr) (var28 Addr) (var29 Addr) (var30 Addr) (var31 Addr) (var32 Heap) (var33 Heap) (var34 Addr) (var35 Addr) (var36 Addr) (var37 Heap)) (or (not (and (inv_main587_14 var37 var36 var35 var34) (and (and (and (and (and (and (= var33 var32) (= var31 var30)) (= var29 var28)) (= var27 var26)) (= var25 (|node::next| (getnode (read var32 var30))))) (and (and (and (and (and (and (= var24 var23) (= var22 var21)) (= var20 var19)) (= var18 var17)) (= var16 (|node::val| (getnode (read var23 var21))))) (and (<= 0 (+ (+ 20 (* (- 1) var15)) (- 1))) (and (and (and (and (= var23 var14) (= var21 var13)) (= var19 var12)) (= var17 var11)) (= var15 (|node::val| (getnode (read var14 var13))))))) (and (and (and (not (= var10 0)) (and (and (<= 0 (+ 20 (* (- 1) var9))) (and (and (and (and (= var8 var37) (= var7 var36)) (= var6 var35)) (= var5 var34)) (= var9 (|node::val| (getnode (read var37 var36)))))) (and (and (and (and (= var4 var8) (= var3 var7)) (= var2 var6)) (= var1 var5)) (= var0 (|node::val| (getnode (read var8 var7))))))) (and (and (and (and (= var14 var4) (= var13 var3)) (= var12 var2)) (= var11 var1)) (or (and (<= 0 (+ var0 (- 10))) (= var10 1)) (and (not (<= 0 (+ var0 (- 10)))) (= var10 0))))) (not (= var36 nullAddr))))) (and (and (and (= var32 (write var24 var22 (O_node (node (+ var16 1) (|node::next| (getnode (read var24 var22))))))) (= var30 var22)) (= var28 var20)) (= var26 var18))))) (inv_main587_14 var33 var25 var29 var27))))
(assert (forall ((var0 Int) (var1 Addr) (var2 Addr) (var3 Addr) (var4 Heap) (var5 Addr) (var6 Addr) (var7 Addr) (var8 Heap) (var9 Int) (var10 Int) (var11 Addr) (var12 Addr) (var13 Addr) (var14 Heap) (var15 Int) (var16 Int) (var17 Addr) (var18 Addr) (var19 Addr) (var20 Addr) (var21 Addr) (var22 Addr) (var23 Heap) (var24 Heap) (var25 Addr) (var26 Addr) (var27 Addr) (var28 Addr) (var29 Addr) (var30 Addr) (var31 Addr) (var32 Heap) (var33 Heap) (var34 Addr) (var35 Addr) (var36 Addr) (var37 Heap) (var38 Int)) (or (not (and (inv_main587_14 var37 var36 var35 var34) (and (and (and (and (and (and (= var33 var32) (= var31 var30)) (= var29 var28)) (= var27 var26)) (= var25 (|node::next| (getnode (read var32 var30))))) (and (and (and (and (and (and (= var24 var23) (= var22 var21)) (= var20 var19)) (= var18 var17)) (= var16 (|node::val| (getnode (read var23 var21))))) (and (not (<= 0 (+ (+ 20 (* (- 1) var15)) (- 1)))) (and (and (and (and (= var23 var14) (= var21 var13)) (= var19 var12)) (= var17 var11)) (= var15 (|node::val| (getnode (read var14 var13))))))) (and (and (and (not (= var10 0)) (and (and (<= 0 (+ 20 (* (- 1) var9))) (and (and (and (and (= var8 var37) (= var7 var36)) (= var6 var35)) (= var5 var34)) (= var9 (|node::val| (getnode (read var37 var36)))))) (and (and (and (and (= var4 var8) (= var3 var7)) (= var2 var6)) (= var1 var5)) (= var0 (|node::val| (getnode (read var8 var7))))))) (and (and (and (and (= var14 var4) (= var13 var3)) (= var12 var2)) (= var11 var1)) (or (and (<= 0 (+ var0 (- 10))) (= var10 1)) (and (not (<= 0 (+ var0 (- 10)))) (= var10 0))))) (not (= var36 nullAddr))))) (and (and (and (and (and (and (and (<= 0 (+ (+ 2 (* (- 1) (+ var16 (* (- 2) var38)))) (- 1))) (<= 0 (+ (+ 2 (* 1 (+ var16 (* (- 2) var38)))) (- 1)))) (or (not (<= 0 (+ (+ var16 (* (- 2) var38)) (- 1)))) (<= 0 (+ var16 (- 1))))) (or (not (<= 0 (+ (* (- 1) (+ var16 (* (- 2) var38))) (- 1)))) (<= 0 (+ (* (- 1) var16) (- 1))))) (= var32 (write var24 var22 (O_node (node var38 (|node::next| (getnode (read var24 var22)))))))) (= var30 var22)) (= var28 var20)) (= var26 var18))))) (inv_main587_14 var33 var25 var29 var27))))
(assert (forall ((var0 Addr) (var1 Addr) (var2 Addr) (var3 Heap) (var4 Int) (var5 Addr) (var6 Addr) (var7 Addr) (var8 Heap)) (or (not (and (inv_main587_14 var8 var7 var6 var5) (and (and (not (<= 0 (+ 20 (* (- 1) var4)))) (and (and (and (and (= var3 var8) (= var2 var7)) (= var1 var6)) (= var0 var5)) (= var4 (|node::val| (getnode (read var8 var7)))))) (not (= var7 nullAddr))))) (inv_main588_17 var3 var2 var1 var0))))
(assert (forall ((var0 Addr) (var1 Addr) (var2 Addr) (var3 Heap) (var4 Int) (var5 Addr) (var6 Addr) (var7 Addr) (var8 Heap) (var9 Addr) (var10 Addr) (var11 Addr) (var12 Heap) (var13 Int) (var14 Int) (var15 Addr) (var16 Addr) (var17 Addr) (var18 Heap)) (or (not (and (inv_main587_14 var18 var17 var16 var15) (and (and (and (= var14 0) (and (and (<= 0 (+ 20 (* (- 1) var13))) (and (and (and (and (= var12 var18) (= var11 var17)) (= var10 var16)) (= var9 var15)) (= var13 (|node::val| (getnode (read var18 var17)))))) (and (and (and (and (= var8 var12) (= var7 var11)) (= var6 var10)) (= var5 var9)) (= var4 (|node::val| (getnode (read var12 var11))))))) (and (and (and (and (= var3 var8) (= var2 var7)) (= var1 var6)) (= var0 var5)) (or (and (<= 0 (+ var4 (- 10))) (= var14 1)) (and (not (<= 0 (+ var4 (- 10)))) (= var14 0))))) (not (= var17 nullAddr))))) (inv_main588_17 var3 var2 var1 var0))))
(assert (forall ((var0 Addr) (var1 Addr) (var2 Addr) (var3 Heap)) (not (inv_main588_17 var3 var2 var1 var0))))
(check-sat)
